300
300 300
1 210 263
2 210 173
3 209 143
4 209 841
5 209 698
6 209 87
7 209 119
8 206 757
9 203 909
10 203 565
11 202 579
12 202 929
13 201 228
14 200 346
15 200 84
16 199 895
17 199 951
18 198 974
19 197 645
20 197 714
21 197 508
22 196 223
23 195 157
24 195 200
25 194 724
26 193 977
27 193 614
28 192 890
29 191 186
30 191 774
31 190 233
32 190 969
33 190 116
34 190 774
35 188 638
36 188 583
37 187 558
38 187 105
39 187 699
40 187 43
41 186 679
42 186 233
43 185 425
44 185 874
45 185 162
46 184 769
47 183 210
48 183 920
49 182 527
50 182 766
51 181 895
52 181 264
53 180 82
54 179 542
55 176 874
56 175 810
57 175 839
58 175 639
59 174 917
60 174 62
61 174 509
62 173 808
63 173 459
64 173 831
65 173 370
66 172 883
67 171 186
68 171 593
69 170 874
70 170 123
71 170 678
72 170 659
73 169 701
74 168 916
75 168 296
76 168 392
77 167 152
78 166 215
79 166 759
80 165 711
81 164 701
82 164 551
83 163 326
84 163 869
85 161 755
86 158 789
87 157 588
88 156 24
89 156 185
90 156 73
91 155 231
92 155 752
93 154 218
94 154 381
95 154 89
96 153 209
97 152 6
98 151 790
99 151 366
100 150 773
101 150 340
102 150 274
103 148 27
104 148 930
105 147 617
106 147 40
107 146 969
108 145 547
109 145 897
110 144 538
111 143 452
112 142 335
113 141 221
114 140 563
115 139 847
116 139 245
117 138 725
118 138 900
119 137 332
120 137 940
121 136 867
122 136 584
123 135 862
124 135 329
125 134 937
126 134 802
127 134 161
128 132 996
129 132 254
130 131 265
131 131 731
132 131 796
133 131 899
134 131 869
135 130 409
136 129 949
137 129 335
138 128 315
139 127 158
140 127 723
141 124 923
142 124 21
143 124 56
144 123 418
145 123 325
146 123 977
147 121 894
148 121 268
149 121 284
150 121 660
151 120 243
152 120 46
153 118 871
154 117 886
155 117 398
156 116 569
157 115 144
158 115 790
159 115 727
160 113 135
161 113 548
162 112 514
163 112 694
164 111 550
165 111 175
166 111 852
167 110 282
168 109 601
169 109 646
170 109 897
171 109 235
172 108 959
173 107 450
174 107 646
175 106 693
176 105 690
177 104 68
178 104 394
179 103 195
180 101 572
181 101 175
182 100 852
183 97 396
184 97 701
185 97 378
186 95 962
187 95 291
188 94 835
189 93 273
190 92 831
191 92 222
192 90 737
193 90 98
194 90 529
195 89 387
196 89 60
197 87 641
198 87 422
199 87 631
200 86 59
201 85 918
202 85 569
203 85 890
204 85 273
205 84 708
206 83 885
207 83 758
208 83 856
209 83 891
210 82 239
211 82 149
212 82 196
213 79 502
214 79 305
215 79 400
216 78 304
217 77 133
218 77 45
219 77 331
220 76 143
221 75 334
222 74 416
223 73 329
224 72 811
225 72 335
226 72 470
227 71 87
228 71 589
229 70 670
230 67 241
231 67 158
232 66 717
233 66 31
234 65 430
235 65 885
236 65 409
237 65 795
238 64 501
239 64 862
240 63 554
241 63 453
242 63 648
243 63 422
244 62 956
245 62 12
246 62 777
247 61 606
248 61 962
249 61 921
250 60 676
251 60 173
252 60 603
253 59 620
254 57 158
255 57 892
256 57 417
257 53 328
258 53 1
259 53 628
260 52 92
261 51 645
262 50 261
263 50 38
264 49 22
265 49 863
266 49 710
267 48 736
268 48 921
269 47 764
270 46 873
271 46 548
272 46 549
273 46 808
274 46 951
275 45 387
276 45 492
277 44 692
278 44 38
279 43 588
280 42 843
281 42 721
282 41 641
283 41 738
284 40 166
285 39 94
286 39 839
287 38 761
288 38 890
289 37 113
290 37 159
291 37 455
292 36 722
293 34 783
294 33 623
295 32 179
296 32 354
297 32 800
298 31 599
299 31 447
300 30 480
